nN = 8;
nR = 32;
nH = 2;

a = [[25, 24, 16, 15, 15, 17, 25, 24, 21, 21, 15, 22, 19, 25, 23, 25, 17, 19, 19, 17, 18, 19, 23, 16, 21, 22, 21, 22, 23, 23, 25, 16], [18, 19, 19, 19, 23, 24, 23, 18, 25, 23, 21, 16, 15, 19, 15, 20, 18, 19, 25, 23, 25, 15, 19, 19, 17, 25, 19, 24, 20, 18, 25, 21], [15, 22, 19, 25, 17, 20, 18, 15, 15, 16, 23, 16, 24, 21, 23, 20, 21, 15, 24, 19, 25, 21, 17, 20, 16, 19, 20, 16, 23, 25, 15, 15], [25, 22, 15, 19, 19, 19, 25, 19, 22, 20, 15, 24, 21, 17, 21, 16, 22, 22, 18, 21, 21, 24, 21, 19, 19, 24, 25, 22, 22, 17, 18, 20], [23, 19, 21, 19, 19, 22, 25, 17, 19, 24, 19, 16, 25, 19, 24, 17, 18, 20, 15, 21, 20, 19, 21, 15, 25, 18, 25, 20, 19, 18, 25, 25], [16, 16, 19, 19, 23, 17, 22, 20, 21, 23, 19, 17, 19, 22, 16, 15, 17, 15, 19, 19, 20, 20, 19, 18, 23, 21, 17, 24, 15, 21, 21, 18], [15, 20, 24, 19, 16, 20, 20, 18, 23, 19, 25, 24, 21, 16, 23, 23, 20, 21, 24, 18, 25, 18, 20, 24, 22, 22, 18, 21, 20, 15, 17, 18], [18, 16, 16, 22, 25, 20, 24, 17, 22, 23, 20, 21, 21, 20, 25, 21, 22, 15, 24, 18, 25, 15, 19, 24, 23, 17, 19, 22, 21, 21, 20, 16]];
c = [[[0, 0, 0, 0, 0, 0, 0, 0, 0, 0, 0, 0, 0, 0, 0, 0, 0, 0, 0, 0, 0, 0, 0, 0, 0, 0, 0, 0, 0, 0, 0, 0], [39, 46, 42, 50, 45, 39, 41, 35, 32, 34, 44, 47, 44, 45, 50, 40, 49, 32, 41, 35, 35, 30, 33, 40, 49, 42, 35, 43, 38, 34, 46, 36], [41, 46, 50, 46, 39, 32, 50, 45, 45, 49, 45, 31, 31, 39, 50, 31, 30, 41, 40, 40, 37, 33, 30, 34, 44, 48, 33, 49, 39, 36, 32, 31], [32, 33, 34, 50, 39, 46, 36, 34, 50, 31, 38, 48, 49, 34, 49, 42, 50, 32, 40, 31, 30, 39, 47, 44, 34, 45, 34, 41, 44, 37, 35, 37], [36, 36, 33, 30, 34, 32, 31, 41, 37, 37, 46, 37, 50, 31, 42, 40, 45, 48, 30, 43, 44, 40, 43, 31, 45, 41, 48, 41, 43, 31, 45, 38], [45, 48, 44, 45, 35, 31, 42, 31, 32, 45, 35, 38, 32, 40, 40, 41, 34, 34, 43, 43, 40, 43, 30, 43, 48, 34, 45, 48, 42, 31, 42, 50], [42, 38, 39, 33, 48, 34, 35, 33, 30, 36, 35, 30, 38, 46, 42, 34, 45, 35, 33, 48, 37, 35, 45, 35, 32, 33, 49, 30, 41, 48, 45, 30], [33, 44, 42, 44, 38, 47, 47, 43, 30, 44, 47, 42, 41, 48, 35, 49, 41, 48, 32, 39, 33, 43, 36, 47, 41, 45, 36, 39, 48, 39, 43, 36]], [[0, 0, 0, 0, 0, 0, 0, 0, 0, 0, 0, 0, 0, 0, 0, 0, 0, 0, 0, 0, 0, 0, 0, 0, 0, 0, 0, 0, 0, 0, 0, 0], [0, 0, 0, 0, 0, 0, 0, 0, 0, 0, 0, 0, 0, 0, 0, 0, 0, 0, 0, 0, 0, 0, 0, 0, 0, 0, 0, 0, 0, 0, 0, 0], [33, 47, 37, 38, 48, 42, 31, 49, 30, 38, 49, 41, 45, 49, 49, 43, 47, 50, 32, 43, 32, 36, 40, 48, 48, 48, 37, 47, 37, 44, 37, 42], [36, 32, 34, 37, 44, 48, 31, 34, 46, 47, 38, 43, 35, 36, 39, 31, 32, 34, 46, 45, 49, 39, 35, 39, 43, 38, 50, 41, 37, 30, 39, 50], [46, 35, 36, 38, 34, 30, 50, 37, 44, 44, 49, 45, 39, 40, 38, 34, 31, 49, 36, 36, 48, 34, 38, 42, 34, 42, 44, 47, 35, 33, 37, 36], [32, 45, 44, 45, 48, 37, 30, 36, 32, 48, 47, 42, 45, 31, 38, 46, 50, 43, 30, 37, 46, 31, 45, 35, 33, 35, 43, 42, 31, 47, 36, 32], [33, 39, 37, 30, 42, 50, 40, 34, 44, 42, 42, 44, 37, 41, 37, 48, 46, 35, 34, 36, 41, 46, 46, 36, 47, 48, 38, 41, 31, 45, 30, 48], [33, 38, 47, 30, 42, 43, 37, 35, 38, 33, 41, 37, 46, 36, 44, 41, 49, 31, 48, 44, 42, 48, 42, 43, 30, 36, 40, 34, 44, 37, 39, 32]], [[0, 0, 0, 0, 0, 0, 0, 0, 0, 0, 0, 0, 0, 0, 0, 0, 0, 0, 0, 0, 0, 0, 0, 0, 0, 0, 0, 0, 0, 0, 0, 0], [0, 0, 0, 0, 0, 0, 0, 0, 0, 0, 0, 0, 0, 0, 0, 0, 0, 0, 0, 0, 0, 0, 0, 0, 0, 0, 0, 0, 0, 0, 0, 0], [0, 0, 0, 0, 0, 0, 0, 0, 0, 0, 0, 0, 0, 0, 0, 0, 0, 0, 0, 0, 0, 0, 0, 0, 0, 0, 0, 0, 0, 0, 0, 0], [39, 36, 37, 45, 30, 33, 46, 30, 44, 31, 34, 44, 41, 39, 33, 37, 47, 42, 35, 42, 43, 31, 39, 46, 43, 47, 50, 38, 30, 50, 37, 30], [45, 39, 50, 37, 50, 41, 45, 47, 34, 34, 45, 30, 42, 47, 44, 42, 46, 36, 30, 32, 48, 50, 39, 43, 43, 42, 48, 35, 43, 39, 48, 37], [31, 48, 49, 34, 31, 40, 40, 48, 45, 50, 34, 42, 50, 41, 31, 48, 39, 32, 44, 48, 45, 37, 41, 48, 49, 47, 44, 35, 46, 45, 38, 35], [45, 48, 41, 49, 44, 39, 34, 49, 41, 39, 37, 45, 30, 49, 47, 36, 36, 31, 49, 49, 36, 48, 43, 50, 38, 43, 38, 48, 36, 49, 35, 48], [49, 31, 38, 46, 35, 46, 36, 40, 30, 34, 50, 30, 42, 46, 50, 46, 38, 32, 36, 37, 38, 38, 38, 43, 41, 40, 39, 48, 38, 48, 46, 36]], [[0, 0, 0, 0, 0, 0, 0, 0, 0, 0, 0, 0, 0, 0, 0, 0, 0, 0, 0, 0, 0, 0, 0, 0, 0, 0, 0, 0, 0, 0, 0, 0], [0, 0, 0, 0, 0, 0, 0, 0, 0, 0, 0, 0, 0, 0, 0, 0, 0, 0, 0, 0, 0, 0, 0, 0, 0, 0, 0, 0, 0, 0, 0, 0], [0, 0, 0, 0, 0, 0, 0, 0, 0, 0, 0, 0, 0, 0, 0, 0, 0, 0, 0, 0, 0, 0, 0, 0, 0, 0, 0, 0, 0, 0, 0, 0], [0, 0, 0, 0, 0, 0, 0, 0, 0, 0, 0, 0, 0, 0, 0, 0, 0, 0, 0, 0, 0, 0, 0, 0, 0, 0, 0, 0, 0, 0, 0, 0], [41, 44, 47, 45, 36, 38, 31, 43, 39, 50, 49, 41, 40, 40, 41, 31, 47, 36, 40, 38, 38, 33, 38, 30, 31, 41, 39, 32, 44, 32, 35, 33], [44, 47, 36, 32, 50, 42, 48, 37, 32, 31, 38, 31, 46, 40, 44, 32, 48, 32, 50, 36, 45, 33, 37, 30, 49, 44, 30, 41, 50, 42, 41, 37], [36, 43, 30, 40, 50, 33, 39, 39, 50, 31, 40, 39, 43, 37, 44, 32, 35, 32, 33, 45, 30, 47, 46, 44, 41, 48, 49, 45, 37, 35, 40, 35], [47, 47, 33, 50, 34, 33, 30, 31, 34, 39, 36, 48, 39, 39, 48, 38, 49, 47, 30, 50, 31, 43, 50, 36, 50, 48, 39, 43, 32, 34, 46, 41]], [[0, 0, 0, 0, 0, 0, 0, 0, 0, 0, 0, 0, 0, 0, 0, 0, 0, 0, 0, 0, 0, 0, 0, 0, 0, 0, 0, 0, 0, 0, 0, 0], [0, 0, 0, 0, 0, 0, 0, 0, 0, 0, 0, 0, 0, 0, 0, 0, 0, 0, 0, 0, 0, 0, 0, 0, 0, 0, 0, 0, 0, 0, 0, 0], [0, 0, 0, 0, 0, 0, 0, 0, 0, 0, 0, 0, 0, 0, 0, 0, 0, 0, 0, 0, 0, 0, 0, 0, 0, 0, 0, 0, 0, 0, 0, 0], [0, 0, 0, 0, 0, 0, 0, 0, 0, 0, 0, 0, 0, 0, 0, 0, 0, 0, 0, 0, 0, 0, 0, 0, 0, 0, 0, 0, 0, 0, 0, 0], [0, 0, 0, 0, 0, 0, 0, 0, 0, 0, 0, 0, 0, 0, 0, 0, 0, 0, 0, 0, 0, 0, 0, 0, 0, 0, 0, 0, 0, 0, 0, 0], [34, 48, 49, 49, 44, 31, 37, 35, 30, 37, 44, 42, 50, 33, 39, 47, 39, 35, 50, 44, 45, 38, 50, 44, 47, 30, 30, 31, 31, 43, 46, 35], [36, 40, 43, 35, 31, 49, 44, 35, 33, 49, 31, 30, 40, 37, 32, 32, 30, 31, 45, 33, 36, 36, 38, 36, 35, 38, 30, 31, 30, 49, 31, 43], [40, 45, 43, 48, 31, 33, 30, 42, 48, 47, 44, 34, 40, 31, 30, 32, 32, 37, 35, 40, 39, 39, 41, 33, 36, 40, 36, 49, 39, 43, 37, 45]], [[0, 0, 0, 0, 0, 0, 0, 0, 0, 0, 0, 0, 0, 0, 0, 0, 0, 0, 0, 0, 0, 0, 0, 0, 0, 0, 0, 0, 0, 0, 0, 0], [0, 0, 0, 0, 0, 0, 0, 0, 0, 0, 0, 0, 0, 0, 0, 0, 0, 0, 0, 0, 0, 0, 0, 0, 0, 0, 0, 0, 0, 0, 0, 0], [0, 0, 0, 0, 0, 0, 0, 0, 0, 0, 0, 0, 0, 0, 0, 0, 0, 0, 0, 0, 0, 0, 0, 0, 0, 0, 0, 0, 0, 0, 0, 0], [0, 0, 0, 0, 0, 0, 0, 0, 0, 0, 0, 0, 0, 0, 0, 0, 0, 0, 0, 0, 0, 0, 0, 0, 0, 0, 0, 0, 0, 0, 0, 0], [0, 0, 0, 0, 0, 0, 0, 0, 0, 0, 0, 0, 0, 0, 0, 0, 0, 0, 0, 0, 0, 0, 0, 0, 0, 0, 0, 0, 0, 0, 0, 0], [0, 0, 0, 0, 0, 0, 0, 0, 0, 0, 0, 0, 0, 0, 0, 0, 0, 0, 0, 0, 0, 0, 0, 0, 0, 0, 0, 0, 0, 0, 0, 0], [31, 45, 48, 44, 49, 44, 48, 40, 47, 33, 35, 47, 43, 36, 41, 32, 44, 48, 40, 35, 38, 47, 30, 41, 33, 40, 34, 38, 34, 39, 37, 34], [39, 36, 39, 49, 39, 32, 43, 34, 39, 42, 39, 33, 50, 45, 37, 37, 35, 38, 37, 45, 38, 42, 31, 50, 45, 50, 34, 46, 35, 50, 42, 46]], [[0, 0, 0, 0, 0, 0, 0, 0, 0, 0, 0, 0, 0, 0, 0, 0, 0, 0, 0, 0, 0, 0, 0, 0, 0, 0, 0, 0, 0, 0, 0, 0], [0, 0, 0, 0, 0, 0, 0, 0, 0, 0, 0, 0, 0, 0, 0, 0, 0, 0, 0, 0, 0, 0, 0, 0, 0, 0, 0, 0, 0, 0, 0, 0], [0, 0, 0, 0, 0, 0, 0, 0, 0, 0, 0, 0, 0, 0, 0, 0, 0, 0, 0, 0, 0, 0, 0, 0, 0, 0, 0, 0, 0, 0, 0, 0], [0, 0, 0, 0, 0, 0, 0, 0, 0, 0, 0, 0, 0, 0, 0, 0, 0, 0, 0, 0, 0, 0, 0, 0, 0, 0, 0, 0, 0, 0, 0, 0], [0, 0, 0, 0, 0, 0, 0, 0, 0, 0, 0, 0, 0, 0, 0, 0, 0, 0, 0, 0, 0, 0, 0, 0, 0, 0, 0, 0, 0, 0, 0, 0], [0, 0, 0, 0, 0, 0, 0, 0, 0, 0, 0, 0, 0, 0, 0, 0, 0, 0, 0, 0, 0, 0, 0, 0, 0, 0, 0, 0, 0, 0, 0, 0], [0, 0, 0, 0, 0, 0, 0, 0, 0, 0, 0, 0, 0, 0, 0, 0, 0, 0, 0, 0, 0, 0, 0, 0, 0, 0, 0, 0, 0, 0, 0, 0], [37, 33, 39, 30, 32, 49, 41, 30, 41, 30, 39, 32, 31, 31, 44, 40, 34, 45, 36, 50, 37, 43, 42, 39, 46, 35, 31, 36, 30, 41, 49, 48]], [[0, 0, 0, 0, 0, 0, 0, 0, 0, 0, 0, 0, 0, 0, 0, 0, 0, 0, 0, 0, 0, 0, 0, 0, 0, 0, 0, 0, 0, 0, 0, 0], [0, 0, 0, 0, 0, 0, 0, 0, 0, 0, 0, 0, 0, 0, 0, 0, 0, 0, 0, 0, 0, 0, 0, 0, 0, 0, 0, 0, 0, 0, 0, 0], [0, 0, 0, 0, 0, 0, 0, 0, 0, 0, 0, 0, 0, 0, 0, 0, 0, 0, 0, 0, 0, 0, 0, 0, 0, 0, 0, 0, 0, 0, 0, 0], [0, 0, 0, 0, 0, 0, 0, 0, 0, 0, 0, 0, 0, 0, 0, 0, 0, 0, 0, 0, 0, 0, 0, 0, 0, 0, 0, 0, 0, 0, 0, 0], [0, 0, 0, 0, 0, 0, 0, 0, 0, 0, 0, 0, 0, 0, 0, 0, 0, 0, 0, 0, 0, 0, 0, 0, 0, 0, 0, 0, 0, 0, 0, 0], [0, 0, 0, 0, 0, 0, 0, 0, 0, 0, 0, 0, 0, 0, 0, 0, 0, 0, 0, 0, 0, 0, 0, 0, 0, 0, 0, 0, 0, 0, 0, 0], [0, 0, 0, 0, 0, 0, 0, 0, 0, 0, 0, 0, 0, 0, 0, 0, 0, 0, 0, 0, 0, 0, 0, 0, 0, 0, 0, 0, 0, 0, 0, 0], [0, 0, 0, 0, 0, 0, 0, 0, 0, 0, 0, 0, 0, 0, 0, 0, 0, 0, 0, 0, 0, 0, 0, 0, 0, 0, 0, 0, 0, 0, 0, 0]]];

q = [[[14, 116], [24, 109], [25, 116], [5, 119], [23, 122], [6, 111], [13, 121], [9, 114], [23, 107], [5, 120], [5, 125], [22, 106], [25, 118], [13, 117], [10, 108], [20, 125], [6, 111], [6, 122], [13, 112], [16, 110], [6, 114], [11, 116], [13, 113], [19, 109], [22, 122], [7, 116], [12, 121], [14, 113], [11, 106], [6, 114], [7, 124], [6, 125]], [[25, 108], [9, 108], [20, 109], [21, 107], [22, 121], [15, 122], [17, 113], [18, 115], [10, 119], [13, 110], [7, 112], [16, 113], [23, 112], [16, 108], [6, 123], [25, 122], [18, 106], [15, 125], [5, 113], [24, 117], [19, 110], [6, 110], [24, 116], [23, 119], [22, 124], [15, 121], [17, 120], [24, 118], [8, 123], [11, 124], [17, 116], [19, 115]], [[8, 124], [6, 112], [6, 118], [18, 113], [19, 116], [8, 115], [5, 123], [19, 113], [5, 107], [18, 105], [15, 122], [21, 121], [20, 123], [9, 113], [9, 110], [23, 113], [13, 109], [7, 107], [25, 108], [6, 110], [22, 116], [10, 115], [12, 122], [13, 109], [8, 105], [20, 109], [22, 111], [5, 122], [8, 124], [13, 106], [19, 125], [5, 124]], [[16, 125], [15, 124], [9, 125], [6, 123], [21, 114], [22, 106], [9, 115], [6, 118], [8, 111], [19, 115], [20, 124], [23, 113], [21, 121], [22, 119], [17, 111], [10, 123], [24, 106], [7, 124], [6, 108], [19, 124], [16, 123], [11, 119], [20, 124], [16, 111], [18, 123], [23, 106], [5, 122], [7, 121], [9, 108], [8, 112], [14, 125], [11, 122]], [[10, 113], [10, 106], [16, 120], [12, 125], [12, 109], [9, 122], [9, 121], [18, 110], [25, 108], [22, 105], [7, 124], [17, 111], [19, 105], [10, 106], [6, 116], [20, 125], [9, 106], [21, 117], [12, 107], [12, 114], [23, 121], [18, 125], [16, 109], [25, 125], [6, 121], [11, 120], [23, 109], [5, 107], [14, 105], [5, 109], [25, 109], [17, 109]], [[8, 123], [6, 119], [24, 120], [23, 118], [14, 116], [8, 107], [17, 111], [18, 105], [19, 118], [19, 123], [22, 108], [11, 105], [16, 117], [6, 107], [15, 112], [16, 122], [7, 123], [5, 119], [10, 123], [20, 109], [20, 123], [24, 123], [23, 121], [14, 124], [16, 111], [20, 112], [23, 114], [6, 119], [16, 109], [23, 125], [12, 121], [15, 112]], [[19, 125], [12, 116], [11, 120], [24, 115], [7, 125], [17, 118], [14, 111], [11, 106], [22, 109], [10, 121], [20, 107], [19, 120], [20, 123], [12, 110], [20, 105], [18, 106], [24, 122], [18, 125], [13, 114], [13, 109], [23, 119], [19, 109], [12, 108], [24, 125], [8, 108], [8, 112], [11, 107], [5, 115], [16, 122], [11, 107], [21, 107], [12, 115]], [[24, 120], [13, 110], [25, 115], [19, 108], [8, 124], [15, 114], [11, 120], [9, 113], [6, 122], [21, 109], [14, 111], [24, 125], [8, 125], [19, 110], [21, 116], [20, 124], [19, 110], [11, 110], [18, 112], [21, 118], [5, 107], [18, 117], [25, 110], [17, 118], [11, 124], [6, 111], [7, 107], [5, 111], [20, 111], [14, 123], [13, 117], [10, 125]]];
Q = [[41, 371], [53, 370], [41, 367], [45, 377], [46, 364], [49, 372], [49, 367], [47, 370]];
